param set_len = 22;
param target := 239126927;
set values := 14538783, 16983769, 26578251, 27535041, 14210400, 12465027, 15368077, 30100002, 3214920, 33513558, 12769116, 29338019, 26649199, 23154103, 29812834, 7981008, 21087985, 19022260, 24654287, 32659152, 21959176, 15892773, ;
